c Reduced graph for 4-Insertions_3 generated by Cyril Grelier
p edge 79 156
e 1 67
e 1 68
e 1 69
e 1 70
e 1 71
e 1 72
e 1 73
e 1 74
e 1 75
e 1 76
e 1 77
e 1 78
e 1 79
e 2 3
e 2 5
e 2 16
e 2 18
e 3 4
e 3 15
e 3 17
e 4 7
e 4 16
e 4 20
e 5 6
e 5 15
e 5 19
e 6 9
e 6 18
e 6 22
e 7 8
e 7 17
e 7 21
e 8 11
e 8 20
e 8 24
e 9 10
e 9 19
e 9 23
e 10 13
e 10 22
e 10 26
e 11 12
e 11 21
e 11 25
e 12 14
e 12 24
e 12 27
e 13 14
e 13 23
e 13 27
e 14 25
e 14 26
e 15 29
e 15 31
e 16 28
e 16 30
e 17 29
e 17 33
e 18 28
e 18 32
e 19 31
e 19 35
e 20 30
e 20 34
e 21 33
e 21 37
e 22 32
e 22 36
e 23 35
e 23 39
e 24 34
e 24 38
e 25 37
e 25 40
e 26 36
e 26 40
e 27 38
e 27 39
e 28 42
e 28 44
e 29 41
e 29 43
e 30 42
e 30 46
e 31 41
e 31 45
e 32 44
e 32 48
e 33 43
e 33 47
e 34 46
e 34 50
e 35 45
e 35 49
e 36 48
e 36 52
e 37 47
e 37 51
e 38 50
e 38 53
e 39 49
e 39 53
e 40 51
e 40 52
e 41 55
e 41 57
e 42 54
e 42 56
e 43 55
e 43 59
e 44 54
e 44 58
e 45 57
e 45 61
e 46 56
e 46 60
e 47 59
e 47 63
e 48 58
e 48 62
e 49 61
e 49 65
e 50 60
e 50 64
e 51 63
e 51 66
e 52 62
e 52 66
e 53 64
e 53 65
e 54 68
e 54 70
e 55 67
e 55 69
e 56 68
e 56 72
e 57 67
e 57 71
e 58 70
e 58 74
e 59 69
e 59 73
e 60 72
e 60 76
e 61 71
e 61 75
e 62 74
e 62 78
e 63 73
e 63 77
e 64 76
e 64 79
e 65 75
e 65 79
e 66 77
e 66 78
